46
1000
200	2
199	1
198	3
197	1
196	2
195	2
194	3
193	1
192	1
191	2
190	4
189	2
188	3
187	2
185	1
184	1
183	1
182	2
181	3
180	3
179	4
178	5
177	2
176	2
174	1
173	1
172	2
171	2
170	2
169	3
168	1
167	3
166	1
164	2
163	2
161	1
160	3
159	5
158	1
157	2
155	2
154	2
153	4
152	1
151	4
150	2
